p edge 104 358
e 1 2
e 1 10
e 1 12
e 1 14
e 1 18
e 1 19
e 1 22
e 1 23
e 1 27
e 1 28
e 1 38
e 1 46
e 1 47
e 1 49
e 1 65
e 1 69
e 2 5
e 2 11
e 2 22
e 2 27
e 2 41
e 2 43
e 2 62
e 2 63
e 2 69
e 3 7
e 3 8
e 3 9
e 3 10
e 3 13
e 3 15
e 3 16
e 3 17
e 3 24
e 3 26
e 3 32
e 3 34
e 3 35
e 3 40
e 3 41
e 3 49
e 3 98
e 4 20
e 4 30
e 4 38
e 4 45
e 4 64
e 4 70
e 4 71
e 4 82
e 4 91
e 4 92
e 4 93
e 4 95
e 5 10
e 5 19
e 5 21
e 5 41
e 5 47
e 5 62
e 5 72
e 6 12
e 6 13
e 6 16
e 6 18
e 6 26
e 6 27
e 6 31
e 6 35
e 6 39
e 6 42
e 6 44
e 6 46
e 6 50
e 6 56
e 6 101
e 7 9
e 7 10
e 7 13
e 7 16
e 7 18
e 7 25
e 7 30
e 7 45
e 7 89
e 8 15
e 8 24
e 8 28
e 8 32
e 8 40
e 8 41
e 8 54
e 8 57
e 8 64
e 8 87
e 8 98
e 8 102
e 9 10
e 9 21
e 9 33
e 9 37
e 9 62
e 9 69
e 9 72
e 10 18
e 10 19
e 10 20
e 10 21
e 10 28
e 10 33
e 10 69
e 10 72
e 11 12
e 11 13
e 11 19
e 11 33
e 11 36
e 11 50
e 11 67
e 11 75
e 11 94
e 11 99
e 12 13
e 12 14
e 12 19
e 12 20
e 12 22
e 12 27
e 12 47
e 12 49
e 12 50
e 12 63
e 13 16
e 13 17
e 13 19
e 13 26
e 13 33
e 13 34
e 13 35
e 13 36
e 13 44
e 13 67
e 13 89
e 14 22
e 14 25
e 14 27
e 14 38
e 14 47
e 14 90
e 14 97
e 15 16
e 15 24
e 15 25
e 15 28
e 15 32
e 15 40
e 15 49
e 15 51
e 15 54
e 15 64
e 15 79
e 15 103
e 16 32
e 16 40
e 16 43
e 16 44
e 16 61
e 16 62
e 17 18
e 17 19
e 17 26
e 17 28
e 17 34
e 17 35
e 17 43
e 17 55
e 17 59
e 18 19
e 18 28
e 18 39
e 18 44
e 18 55
e 18 73
e 19 22
e 19 26
e 19 28
e 19 34
e 19 35
e 19 55
e 20 30
e 20 49
e 20 63
e 20 64
e 20 72
e 20 81
e 21 33
e 21 69
e 21 72
e 22 23
e 22 59
e 22 63
e 22 66
e 23 39
e 23 46
e 23 59
e 23 66
e 23 75
e 23 76
e 23 77
e 23 100
e 24 32
e 24 41
e 24 60
e 24 64
e 24 85
e 24 98
e 25 28
e 25 30
e 25 40
e 25 45
e 25 54
e 25 84
e 25 103
e 26 34
e 26 35
e 26 42
e 26 43
e 27 31
e 27 38
e 27 47
e 27 56
e 27 101
e 28 49
e 28 54
e 28 55
e 28 79
e 28 87
e 29 48
e 29 58
e 29 61
e 29 67
e 29 74
e 29 80
e 29 96
e 30 45
e 30 64
e 30 71
e 31 42
e 31 46
e 31 56
e 31 63
e 31 101
e 32 43
e 32 64
e 32 84
e 33 36
e 33 67
e 33 69
e 33 72
e 34 35
e 35 45
e 35 68
e 35 78
e 35 83
e 35 92
e 36 67
e 36 76
e 36 77
e 36 82
e 37 39
e 37 58
e 37 80
e 38 47
e 38 65
e 38 73
e 38 81
e 38 89
e 38 95
e 39 55
e 39 58
e 39 75
e 39 80
e 39 100
e 40 45
e 41 60
e 41 98
e 42 46
e 42 56
e 42 79
e 43 55
e 43 59
e 44 65
e 44 73
e 45 68
e 45 78
e 45 83
e 45 92
e 46 52
e 46 56
e 46 66
e 47 65
e 48 52
e 48 53
e 48 76
e 48 77
e 48 80
e 49 54
e 49 57
e 49 63
e 49 79
e 49 85
e 50 53
e 50 67
e 51 87
e 51 90
e 52 66
e 53 61
e 53 65
e 53 73
e 53 104
e 54 57
e 54 71
e 54 79
e 54 84
e 54 102
e 55 59
e 56 75
e 56 101
e 57 71
e 57 79
e 57 85
e 57 102
e 58 80
e 59 60
e 59 66
e 60 66
e 61 62
e 61 67
e 61 73
e 61 104
e 64 88
e 68 78
e 68 83
e 68 92
e 69 72
e 70 93
e 73 95
e 73 104
e 74 96
e 75 100
e 76 77
e 78 83
e 81 89
e 81 91
e 83 92
e 86 88
e 89 91
e 94 99
